
  32    1
  10

   0   0   4 2 3 4 10 
   8   3   4 14 7 6 5 
   8  10   3 12 9 7 
   3   9   2 14 6 
   1  10   3 13 12 8 
   5   7   2 13 8 
   9   4   2 13 8 
   4   4   3 19 15 11 
   2   7   3 19 18 14 
   6   7   2 15 11 
   9  10   4 21 20 18 16 
   9  10   2 18 15 
   1   5   4 21 20 18 17 
   1  10   3 21 20 16 
   5   8   2 21 16 
   5   8   1 17 
   7   9   3 24 23 22 
   9  10   3 24 23 22 
   8   6   3 24 23 22 
   5   5   4 30 29 24 23 
   5  10   6 31 30 29 28 25 24 
   4  10   5 30 29 28 27 26 
   2  10   4 31 28 27 25 
   4   6   2 27 26 
   4   7   1 26 
   9  10   1 32
   8   8   1 32
   4  10   1 32
   5   9   1 32
   2   8   1 32
   1  10   1 32
   0   0   0 
